c 72_3_checker_5cl.cnf
c
c field = 72
c formula set type = 3_checker_5cl
c
p cnf 5 16
140 
144 
146 
-149 
-138 
141 
145 
147 
-148 
-139 
144 
146 
148 
-141 
-138 
145 
147 
149 
-140 
-139 
52 
82 
112 
-23 
-172 
53 
83 
113 
-22 
-173 
46 
78 
110 
-15 
-174 
47 
79 
111 
-14 
-175 
110 
174 
206 
-239 
-78 
111 
175 
207 
-238 
-79 
174 
206 
238 
-111 
-78 
175 
207 
239 
-110 
-79 
58 
86 
114 
-171 
-198 
59 
87 
115 
-170 
-199 
86 
114 
170 
-59 
-198 
87 
115 
171 
-58 
-199 
